Maximize
 obj: 0 X1
Subject To
 c1:
  + 2570 X1 + 9850 X2 + 8710 X3 + 2190 X4 + 1250 X5 + 940 X6 + 4340 X7 + 1370 X8
  + 9630 X9 + 7650 X10
  <= 24250
 obj1:
  + 566 X1 + 611 X2 + 506 X3 + 180 X4 + 817 X5 + 184 X6 + 585 X7 + 423 X8
  + 26 X9 + 317 X10
  >= 1
 obj2:
  + 62 X1 + 84 X2 + 977 X3 + 979 X4 + 874 X5 + 54 X6 + 269 X7 + 93 X8
  + 881 X9 + 563 X10
  >= 2
 obj3:
  + 664 X1 + 982 X2 + 962 X3 + 140 X4 + 224 X5 + 215 X6 + 12 X7 + 869 X8
  + 332 X9 + 537 X10
  >= 3
 obj4:
  + 557 X1 + 898 X2 + 148 X3 + 63 X4 + 78 X5 + 964 X6 + 246 X7 + 662 X8
  + 386 X9 + 272 X10
  >= 4
 obj5:
  + 979 X1 + 448 X2 + 355 X3 + 955 X4 + 426 X5 + 229 X6 + 9 X7 + 695 X8
  + 322 X9 + 889 X10
  >= 5
Binary
 X1
 X2
 X3
 X4
 X5
 X6
 X7
 X8
 X9
 X10
End
